(set-logic HORN)
(declare-fun state (Int Int (Array Int Int) Int Int Bool Bool Bool Bool Int Int) Bool)
(assert (forall ((|A_18| Int) (|B_17| Int) (|C_17| (Array Int Int)) (|D_17| Int) (|.y.6| Int) (|.loc.7| Bool) (|.loc.8| Bool) (|.loc.9| Bool) (|.loc.10| Bool) (|H_18| Int) (|H_19| Int) (|.loc.12| Bool) (|.loc.13| Bool) (|I_17| Int) (|.x.37| Int) (|.y.11| Int) (|.x.36| (Array Int Int)) (|.loc.14| Bool) (|.loc.15| Bool) (|.x.35| Int) (|.xtv.1| Int) (|.xpv.1| Int)) (=> (and (and (and (not .loc.7) (not .loc.8)) (not .loc.9)) (not .loc.10)) (state |A_18| |B_17| |C_17| |D_17| |.y.6| |.loc.7| |.loc.8| |.loc.9| |.loc.10| |H_18| |H_19|))))
(assert (forall ((|A_18| Int) (|B_17| Int) (|C_17| (Array Int Int)) (|D_17| Int) (|.y.6| Int) (|.loc.7| Bool) (|.loc.8| Bool) (|.loc.9| Bool) (|.loc.10| Bool) (|H_18| Int) (|H_19| Int) (|.loc.12| Bool) (|.loc.13| Bool) (|I_17| Int) (|.x.37| Int) (|.y.11| Int) (|.x.36| (Array Int Int)) (|.loc.14| Bool) (|.loc.15| Bool) (|.x.35| Int) (|.xtv.1| Int) (|.xpv.1| Int)) (=> (and (state |A_18| |B_17| |C_17| |D_17| |.y.6| |.loc.7| |.loc.8| |.loc.9| |.loc.10| |H_18| |H_19|) (let ((.def_21 (not .loc.7))) (let ((.def_22 (not .loc.8))) (let ((.def_24 (not .loc.9))) (let ((.def_26 (not .loc.10))) (let ((.def_29 (not .loc.12))) (let ((.def_37 (<= D_17 B_17))) (let ((.def_60 (<= A_18 0))) (let ((.def_61 (not .def_60))) (let ((.def_67 (or .def_60 (not (<= H_18 0))))) (let ((.def_75 (not .loc.13))) (let ((.def_78 (= .y.11 0))) (let ((.def_80 (= D_17 I_17))) (let ((.def_84 (= C_17 .x.36))) (let ((.def_88 (not .def_37))) (let ((.def_89 (and .loc.7 .def_88))) (let ((.def_99 (= (+ B_17 (* (- 1) .y.11)) (- 1)))) (let ((.def_103 (= (+ A_18 (+ B_17 (* (- 1) H_18))) 0))) (let ((.def_108 (and .def_37 .def_84))) (let ((.def_109 (and .loc.7 .def_108))) (let ((.def_110 (and .loc.8 .def_109))) (let ((.def_135 (not .loc.14))) (let ((.def_139 (and .loc.8 .def_108))) (let ((.def_148 (not .loc.15))) (let ((.def_154 (and .loc.8 .def_89))) (let ((.def_181 (and .loc.8 .def_88))) (let ((.def_305 (= A_18 .x.35))) (or (or (and (or (or (or (or (or (or (or (or (or (or (or (or (and (or (or (and (or (and (or (and (and .def_29 .loc.13) (or (and .def_22 (and .loc.7 (and (= I_17 0) (and (= D_17 .x.37) .def_37)))) (and (= .y.6 .x.37) (and (and (= (+ D_17 (* (- 1) I_17)) (- 1)) (and (= (+ A_18 (+ D_17 (* (- 1) H_18))) 0) (and (and (not (<= .y.6 D_17)) (and (and .loc.8 .def_21) (= (select C_17 H_18) 50))) .def_61))) .def_67)))) (and (and (and (and .def_21 (and .loc.12 (and .def_22 .def_37))) .def_75) .def_78) .def_80)) .def_84) (and (and (and (= .x.36 (store C_17 H_18 50)) (and .def_80 (and .def_75 (and .def_67 (and .def_61 (and .loc.12 (and .def_22 .def_89))))))) .def_99) .def_103)) (and .loc.10 .def_24)) (and .def_26 (and .def_80 (and .def_78 (and .def_75 (and .def_29 (and .loc.9 .def_110))))))) (and (= .x.36 (store C_17 H_18 49)) (and .def_103 (and .def_99 (and .def_80 (and .def_75 (and .def_67 (and .def_61 (and .def_21 (and .def_29 (and .def_24 (and .def_22 (and .loc.10 .def_88))))))))))))) (and .def_135 .loc.15)) (and (and .def_26 (and .def_80 (and .def_78 (and .def_21 (and .loc.14 (and .loc.13 (and .loc.12 (and .loc.9 .def_139)))))))) .def_148)) (and (= .x.36 (store C_17 H_18 48)) (and .def_148 (and .def_26 (and .def_103 (and .def_99 (and .def_80 (and .def_67 (and .def_61 (and .loc.14 (and .loc.13 (and .loc.12 (and .loc.9 .def_154))))))))))))) (and .def_148 (and .def_26 (and .def_80 (and .def_78 (and .def_29 (and .loc.14 (and .loc.13 (and .def_22 (and .loc.9 .def_109)))))))))) (and (= .x.36 (store C_17 H_18 47)) (and .def_148 (and .def_26 (and .def_103 (and .def_99 (and .def_80 (and .def_67 (and .def_61 (and .def_21 (and .def_29 (and .loc.14 (and .loc.13 (and .loc.9 .def_181)))))))))))))) (and .def_148 (and .def_26 (and .def_80 (and .def_78 (and .def_75 (and .def_21 (and .loc.14 (and .loc.12 (and .def_22 (and .loc.9 .def_108))))))))))) (and (= .x.36 (store C_17 H_18 46)) (and .def_148 (and .def_26 (and .def_103 (and .def_99 (and .def_80 (and .def_75 (and .def_67 (and .def_61 (and .loc.14 (and .loc.12 (and .def_22 (and .loc.9 .def_89)))))))))))))) (and .def_148 (and .def_26 (and .def_80 (and .def_78 (and .def_75 (and .def_29 (and .loc.14 (and .def_24 .def_110))))))))) (and (= .x.36 (store C_17 H_18 45)) (and .def_148 (and .def_26 (and .def_103 (and .def_99 (and .def_80 (and .def_75 (and .def_67 (and .def_61 (and .def_21 (and .def_29 (and .loc.14 (and .def_22 (and .loc.9 .def_88))))))))))))))) (and .def_148 (and .def_26 (and .def_80 (and .def_78 (and .def_21 (and .def_135 (and .loc.13 (and .loc.12 (and .def_24 .def_139)))))))))) (and (= .x.36 (store C_17 H_18 44)) (and .def_148 (and .def_26 (and .def_103 (and .def_99 (and .def_80 (and .def_67 (and .def_61 (and .def_135 (and .loc.13 (and .loc.12 (and .def_24 .def_154))))))))))))) (and .def_148 (and .def_26 (and .def_80 (and .def_78 (and .def_135 (and .def_29 (and .loc.13 (and .def_24 (and .def_22 .def_109)))))))))) (and (= .x.36 (store C_17 H_18 43)) (and .def_148 (and .def_26 (and .def_103 (and .def_99 (and .def_80 (and .def_67 (and .def_61 (and .def_21 (and .def_135 (and .def_29 (and .loc.13 (and .def_24 .def_181)))))))))))))) .def_305) (and (not (<= .x.35 0)) (and (not (<= I_17 0)) (and .def_148 (and .def_26 (and .def_78 (and .def_75 (and .def_21 (and .def_135 (and .loc.12 (and .def_22 .def_24))))))))))) (and (= .x.36 (store C_17 H_18 42)) (and .def_148 (and .def_26 (and .def_103 (and .def_99 (and .def_80 (and .def_75 (and .def_67 (and .def_61 (and .def_135 (and .loc.12 (and .def_24 (and .def_22 (and .loc.7 (and .def_88 .def_305))))))))))))))))))))))))))))))))))))))))))) (state |.x.35| |.y.11| |.x.36| |I_17| |.x.37| |.loc.12| |.loc.13| |.loc.14| |.loc.15| |.xtv.1| |.xpv.1|))))
(assert (forall ((|A_18| Int) (|B_17| Int) (|C_17| (Array Int Int)) (|D_17| Int) (|.y.6| Int) (|.loc.7| Bool) (|.loc.8| Bool) (|.loc.9| Bool) (|.loc.10| Bool) (|H_18| Int) (|H_19| Int) (|.loc.12| Bool) (|.loc.13| Bool) (|I_17| Int) (|.x.37| Int) (|.y.11| Int) (|.x.36| (Array Int Int)) (|.loc.14| Bool) (|.loc.15| Bool) (|.x.35| Int) (|.xtv.1| Int) (|.xpv.1| Int)) (=> (state |A_18| |B_17| |C_17| |D_17| |.y.6| |.loc.7| |.loc.8| |.loc.9| |.loc.10| |H_18| |H_19|) (let ((.def_60 (<= A_18 0))) (not (and (and .loc.10 (and (not .loc.9) (and .loc.8 (not .loc.7)))) (and (and (not (= (select C_17 H_19) 50)) (and (and (not (<= .y.6 D_17)) (not .def_60)) (= (+ A_18 (+ D_17 (* (- 1) H_19))) 0))) (or .def_60 (not (<= H_19 0))))))))))
(check-sat)
